91
1000
793	1
773	1
770	1
769	1
766	2
750	1
743	1
734	1
728	2
727	1
723	1
720	1
718	1
716	1
706	1
705	1
704	1
691	1
658	1
643	1
629	1
624	1
622	1
613	1
611	1
604	1
596	1
584	1
583	1
580	1
577	1
570	1
560	1
554	1
543	1
533	1
531	1
530	1
528	1
521	1
514	1
508	1
502	1
492	1
460	1
444	1
421	1
418	1
397	1
394	2
393	1
391	1
385	1
366	2
356	1
352	1
350	2
346	1
338	1
317	1
298	1
292	1
290	1
288	2
283	1
279	1
277	2
266	1
264	1
252	1
249	1
241	1
237	1
235	1
234	2
232	1
204	1
185	1
184	1
178	1
174	1
172	1
169	1
167	1
155	1
153	1
143	1
139	1
108	1
104	1
103	2
